Route 1: 0 82 30 5 62 60 90 48 4 31 42 0
Route 2: 0 29 3 61 13 10 54 97 24 26 0
Route 3: 0 16 88 11 15 65 49 1 20 78 0
Route 4: 0 59 2 70 99 66 94 34 27 53 100 0
Route 5: 0 39 81 19 86 28 8 6 43 79 68 41 89 0
Route 6: 0 77 52 50 75 64 98 45 85 57 25 95 0
Route 7: 0 12 14 73 51 37 32 67 22 21 58 38 0
Route 8: 0 56 17 47 93 63 80 69 0
Route 9: 0 9 74 40 96 83 84 18 87 92 0
Route 10: 0 33 55 46 44 23 76 7 0
Route 11: 0 91 35 72 71 36 0
